     60      3     31    609     20
     33     33     42
     31     16     56     32     15     26     49     36     18     56     26     21      1     58     22     53      5     34     30     24     18     42     38     40     54     13     50     57     45     11     19      2     55     45     10     25     39     37     52     56     19     34     26     47      4     49     24     38     40      3     51     55     49     43     22     46      2     55     25     36     16     47     38     49     34     40     36     39     47      3      8     24     16      6      2     28      2     32     59     46     43      7     19     11     30     38     57     35     12     41     42     58     33     16     11      2      6     21     23     38     36     52     33     10     55     37     29      6     41     55     34     20     19     47     35     38      0     34     35     23      8     56     37     21     58     55      8     32     22     37     29     20     28      7     44     16     35     19      9      3     48     14      2     13     58      7     25     38     26      0      0      4     35     42     21     22     45     19     24      4      6     41     50     32     12     17     51      1      8      1     57     10     54     17     15      1      0     24     56     31     47     11     35     29     21     53     32     58     22     34     28      0     54     15     29     16     27     28      1     33     38     25     51     21     12     16      9     17     46     51      6     21     47     30     20     28     40     15     44     17     59     51     44      7     50     25     45     26     31     51      5      8      0     37      6     29     12     47      1     31     21     15      3     59     13     48      1     42     58     37     10     20     53     25     52      4     32     12     50     25     24     43     28     39     14      8     46     54     56     12     37     44      5     45     58     21     25      4     13      1     57     17     27      4     22     12      1     13     44     58     38      8     43     11     12      0     57     39     31     43      0     38     36     14     13      5     27     21     16     29     41      2     54     55     11     27     16     52     12      0     18     14     55     53      4     28     45      9     22      7     48     52     25     47     56     37     24     50     32     14     10     12      8     20     56      2     53     30     57     11     53     37     28     13     35     54      5     37     42     31     23     53     59     30     26     18     49     31     52      0     50     14      1     19      4     11     44     34     17     18     32     47     10     31     14     57      3     16     28     33     39     56     27     39     55     50     13     18      1     19     20      2     48     42     33     23     20     43     36     34      9     27     31     48     18     10     42     22      6     44      3      9     19     41     45      7      2     52     23     38      6     50      4     12     59     46      2     14     19     53     27     17      0     41     44     45     16     42     12     48     45     40     49      1     16     22     51     58     20     41     15      1      0     32     35     37     47     34     25     43     44     18     30     31      2     40     39     45     26     17     22     29     26     19     12     15     24     48     56     52     27     13     30     51     22      0     38     15      8     33     45      4     36     48     23     14     18     44     55     20     59     25     34     55     16      2     14     41     32      6
     11     -5     -5     88     72     92     75    146      6    133    125    121     64     67     38     66    119     12     61     37    124     95      6    -29    104     40      8    -12     15     69     30    -31     37    109    -16     67    -17     20     94    126     26     64     87     85     69      8    146     12     26      4     26     89     62     57    -11     48    -11    -25     65     45    -14     26     88     98    -21      2     74    -13     66     33      8     33     84     33      8    100     85     43      1     88
     10     10     15     11	    274    156     17     27      9      0      0      0      0      0    209      0      0      0    157      0     89      0     32      0      0      0    -18      0      2      0      0      0      0      0      0    -32      0      0      0      0      0    127      0      0      0      0      0      0      0      0      0      0      0     22      0      0     89      0      0      0      0    -19    -17    103      0      0      0     73     73
      7     13     11     13	    187     70     27     30      7      0      0    -19      0      0      0      0      0      0      0      0      0      0      0      0      0      0      0      0      0     77    -11      0      0     29      0     75      0      0      0     74    147     52     14      0      0      0      0      0      0     49     54      0      0      0      0      0      0      0      0      0      0      0      0      0      0      0      0      0      0
     12     15     11     12	    421    237     15     18      8      0    -19      0      0    182      0      0      0      0    163      0      0      0    -18     49      0      0      0      0      7      0      0      0      0     58      0      0      0      0      0      0      0      0     29      0      0      0      0      0      0      0      0      0      0      0      0      0      0      0      0      0      0      0      0      0      0      0      0      0      0
      9     14     13     11	    357    215      9     22      1      0      0      0      0     53      0     99      0    113     48      0    135      0      0      0      0     21      0      0      0      0     64      0      0      0      0      0      0      0      0    148      0    101      0      0      0      0      0      0    176      0      0      0     89      0    272      0      0      0      0      0      0      0      0     37    259      0      0    -12      0
      8     11     13     12	    470    189     11     11      4      0      0    182     53      0      0     97      0      0      0      0      0      0     39     44      0      0      0    -29      0      0      0      0      0      0      0      0      0      0      0      0      0      0      0      0      0      0     19      0     69      0    354      0      0      0    118      0    194      0      0      0      0      0      0      0      0     39      0    113     17
     11     10     13     10	    468    263     17     20      3    209      0      0      0      0      0      0      0      0      0    188      0      0      0      0     40      0      0      0      0      0      0    -23      0      0      0      0      0      0      0      0    -31      0      0      0      0      5      0      0      0      0      0      0    -20      0      0      0      0      0      0      0      0      0      0      0      0      0      0      0      0
      9     11     13     13	    127     75     19     31      3      0      0      0     99     97      0      0      0      0      0      0      0      0      0      0      0      0      0      0      3      0      0      0      0      0      0     87     24      0      0      0      0      0      0      0      0     33      0     82      0     29      0     94      0      0     81     71      0      0      0    -17      0      0     30      0      0      0      0      0      0
      9     12     11     11	    208    109     17     30      9      0      0      0      0      0      0      0      0      0    123      0      0      0      0      0      0      0      0      0     15      0      0      0      0      0      0      0      0     62      0      0      0      0      0      0      0    119      0      0      0      0      0      0     74      0      5      0      0      0     85      0     27      0      0     73      0      0      0      0      0
      9     12     15     10	    326     71     29     29      7      0      0      0    113      0      0      0      0      0    -37    232     39     69    -46      0      0      0    -42    244      0      0      0      0      0      0      0      2      0      0     36      0      0      0      0      0      0    179      0      0      0      0     41      0      0    253     85      0      0      0     73      0      0      0      0      0      0      0     92      0      0
      8     14     12     15	    413    254     20     21     10    157      0    163     48      0      0      0    123    -37      0      0      0      0      0      0      0     13      0      0      0     90      0      0      0      0     87      0      0      0      0      0      0      0      0      0    133      0      0      0      0      0      0      0      0      0      0    175    -11      0      0      0      0      0      0      0      0      0      0      0      0
      6     15     13     15	    383    259     18     25      6      0      0      0      0      0    188      0      0    232      0      0    174      0    147      0      0    118      0      0      0     76      0      0      0    159      0      0      0      0      0      0      0      1      0      0      0     24      0     34      0      0      0      0      0      0      0      0      0      0      0      0      0      0      0      0    125     53      0     63      0
     10     12     12     12	    224     78     21     31     10     89      0      0    135      0      0      0      0     39      0    174      0      0      0      0      0      0      0      0      0      0      0     59     71      0      0     -8      0     89      0      0      0     24      0      0      0      0     59      0      0     90      0      0      0      0      0      0      0      0      0      0     68      0      0      0      0      0      0     72      0
     12     14     11     10	    126     72     12     27      2      0      0      0      0      0      0      0      0     69      0      0      0      0      0     88      0      0      0      0      0      0      0      0      0      0      0      0      0      0      0      0      0      0      0      0      0      0      0      0     99     68      0      0      0      0      0      0      0     75      0      0      0     36      0      0      0     82      0      0      0
      6     10     13     14	    265    113     13     27      3     32      0    -18      0     39      0      0      0    -46      0    147      0      0      0      0      0      0      0      0    -18      0      0      0      0      0    115      0    142      0      0      0     32      0      0      0      0      0      0      0      0      0      0      0      0      0      0      0      0      0      0      0     78      0      0      0      0      0     63     88      0
      6     12     12     11	    432    296     24     26      8      0      0     49      0     44      0      0      0      0      0      0      0     88      0      0      0      0      0    160     66      0    112      0    -41    174      0      1      0      0      0      0      0      0      0      0      0      0      0      0    135      0      0      0     87      0      0      0      0    279      0      0    -47      0      0      0      0    -35      0      0      0
     11     14     11     13	    414    181     21     27      1      0      0      0      0      0     40      0      0      0      0      0      0      0      0      0      0      0      0      0      0      0      0      0      0      0      0    204      0      0      0      0      0      0      0      0      0     10      0    -67     32      0      0      0      0      0      0      0      0      0      0      0      0      0      0      0      0      0    229      0      0
      9     15     12     11	    151     50     18     29      8      0      0      0     21      0      0      0      0      0     13    118      0      0      0      0      0      0      0     25      0     81      0      0      0      0      0      0      0      0      0      0      0      0      0      0      0    119      0      0      0      0     55      0      0     59     63      0      0      0      0      0      0      0      0      0      0      0      0      0      0
      9     10     11     13	    404     59     12     17      1    -18      0      0      0      0      0      0      0    -42      0      0      0      0      0      0      0      0      0     49      0      0      0      0      0      0     25      0      0      0      0      0      0    282      0    168      0      0      0    -42      0      0      0      0     14      0    -15      6      0      0      0      0    -54      0      0      0      0     82      0     12      0
      7     11     15     12	    333    187     26     31      6      0      0      0      0    -29      0      0      0    244      0      0      0      0      0    160      0     25     49      0    118      0      0      0      0      0      0      0    116      0      0      0    200     -1      0      0      0      0     12     21      0    101      0      0      0    -34      0      0      0      0      0      0     11     87      0      0      0      0      0      0      0
      7     14     10     10	    203    140     27     29      2      2      0      7      0      0      0      3     15      0      0      0      0      0    -18     66      0      0      0    118      0      0    108      0      0      0     91      0      0     -8      0      0      0      0      0      0      0      0      0      0    -36     24     36      0      0      0      0      0      0      0      0      0      0    100      0      0      0      0      0      0      0
      6     12     10     10	    194    133     21     24     10      0     77      0      0      0      0      0      0      0     90     76      0      0      0      0      0     81      0      0      0      0      0      0      0      0      0      0      0      0      0      0      0    119     61      0      0      0      0     52      0      0      0      0      0      0      0     55      0      0      0      0      0     -5      0     89      0    -20      0      0      0
     11     14     11     10	    255     92     22     27      4      0    -11      0     64      0      0      0      0      0      0      0      0      0      0    112      0      0      0      0    108      0      0      0      0      0      0      0      0    155      0      0      0      0      0    -17      0     16     81      0      0      0      0      0      0      0      0      0    203      0      0      0      0     37     -2    184      0     56    170      7      0
      8     10     13     13	    268    161     30     31      8      0      0      0      0      0    -23      0      0      0      0      0     59      0      0      0      0      0      0      0      0      0      0      0      0      0     81      0      0      0     -3      0      0      0      0    158      0    159      0    182      0      0      0      0      0      0      0     51      0      0      0      0      0      0      0     98     60      0      0     16      0
      8     15     10     15	    466    232     17     19      4      0      0      0      0      0      0      0      0      0      0      0     71      0      0    -41      0      0      0      0      0      0      0      0      0      0     88      0      0      0      0      0    244    198      0     58      0      0      0      0    -16      0     57    -22      0      0      0      0      0    104      0      0      0      0    230      0    -33    106      0     37      0
      9     11     10     12	    265     98     19     23      3      0     29     58      0      0      0      0      0      0      0    159      0      0      0    174      0      0      0      0      0      0      0      0      0      0      0      0      0      0      0    209      0      0      0      0      0     -1      0      0      0      0      0      0      0      0      0      0    -34      0      0      0    112      0      0      0      0      0      0      0      0
     10     10     12     11	    332    183     27     28      4      0      0      0      0      0      0      0      0      0     87      0      0      0    115      0      0      0     25      0     91      0      0     81     88      0      0      0      0      0      0      0     29      0      0      0      0    -16     10      0      0      0      0      0      0      0    206      0      0      0     97     12      0      0      0      0      9      0      0      0      0
     12     14     11     14	    296    180     19     19      6    -32     75      0      0      0      0     87      0      2      0      0     -8      0      0      1    204      0      0      0      0      0      0      0      0      0      0      0      0      0      0      0    149    234      0      0     10     77      0      0      0      0      0      0      0      0      0      0      0      0      0      0      0      0      0      0    164      0      0      0      0
      9     15     15     10	    237     68     19     20      6      0      0      0      0      0      0     24      0      0      0      0      0      0    142      0      0      0      0    116      0      0      0      0      0      0      0      0      0      0      0      0      0      0      0      0      0      0      0     64      0    147      0      0      0    134      0      0      0      0      0      0      0    -12      0      0      0      0      0      0      0
      7     14     13     14	    451    153     20     27      2      0      0      0      0      0      0      0     62      0      0      0     89      0      0      0      0      0      0      0     -8      0    155      0      0      0      0      0      0      0      1      0      0      0      0      0      0     47      0      0      0      0      0    -12      0    290      0      0    -58      0      0      0      0      0      0      0      0      0      0      0      0
      6     14     15     15	    102     51     10     10      6      0      0      0      0      0      0      0      0     36      0      0      0      0      0      0      0      0      0      0      0      0      0     -3      0      0      0      0      0      1      0      6      0     65      0     76      0      0     50      5     76     51      0      0      0      0      0      0     61    -14      0      0      8     -7      0      0     36      0      0      0      0
      9     12     12     14	    399     90     23     29      7      0     74      0    148      0      0      0      0      0      0      0      0      0      0      0      0      0      0      0      0      0      0      0      0    209      0      0      0      0      6      0      0      0     66      0    217      0     59      0      0      0      0      0      0    196      0      0      0      0      0      0      0     80      0      0    229      0      0      0     24
      6     15     15     12	    350     61     28     29      2      0    147      0      0      0    -31      0      0      0      0      0      0      0     32      0      0      0      0    200      0      0      0      0    244      0     29    149      0      0      0      0      0      0      0      0      0      0      0    166      0      0      0      0      0     99      0      0      0      0      0      0      0      0      0      6      0      0      0      0      0
     11     11     15     13	    487    338     21     24     10    127     52      0    101      0      0      0      0      0      0      1     24      0      0      0      0      0    282     -1      0    119      0      0    198      0      0    234      0      0     65      0      0      0     50      0      0      0      0      0      0      0      0      0      0      0     31      0      0    -82     96      0      0     42      0      0      0      0      0      0      0
     12     10     14     13	    116     69     24     24      8      0     14     29      0      0      0      0      0      0      0      0      0      0      0      0      0      0      0      0      0     61      0      0      0      0      0      0      0      0      0     66      0     50      0      0      0      0      6      0      0      0      0      0      0      0      0      0      0      0     85      0      0     55      0      0     93      0      0      0     19
      6     14     10     11	    344     74     25     25      6      0      0      0      0      0      0      0      0      0      0      0      0      0      0      0      0      0    168      0      0      0    -17    158     58      0      0      0      0      0     76      0      0      0      0      0      0      0      0      0      0      0      0      0      0      0      0      0      0      0      0      0      0      0      0      0      0      0      0      0      0
      7     15     13     10	    335     67      8     12     10      0      0      0      0      0      0      0      0      0    133      0      0      0      0      0      0      0      0      0      0      0      0      0      0      0      0     10      0      0      0    217      0      0      0      0      0      0      0      0      0      0    -31      0    -11      0      0      0      0      0      0      0      0      0      0      0      0      0      0      0      0
     10     14     10     15	    239    131     22     28      8      0      0      0      0      0      5     33    119    179      0     24      0      0      0      0     10    119      0      0      0      0     16    159      0     -1    -16     77      0     47      0      0      0      0      0      0      0      0     61      0    157      0      0      0      0      0      0    109      0    100      0      0      0      0      0      0     90      0      0      0      0
     11     10     14     11	    151     67     16     17      4      0      0      0      0     19      0      0      0      0      0      0     59      0      0      0      0      0      0     12      0      0     81      0      0      0     10      0      0      0     50     59      0      0      6      0      0     61      0      0      0     62      0      0      0      0      0      0      0      0      0      0      0      0      0      0      0      0      0      0      0
      8     15     13     12	    405    201     23     28      9      0      0      0      0      0      0     82      0      0      0     34      0      0      0      0    -67      0    -42     21      0     52      0    182      0      0      0      0     64      0      5      0    166      0      0      0      0      0      0      0      0    208      0      0      0      0      0    142      0      0      0     51      0      0      0      0    154      0      0      0      0
     12     12     14     11	    227     50     21     24      6      0      0      0    176     69      0      0      0      0      0      0      0     99      0    135     32      0      0      0    -36      0      0      0    -16      0      0      0      0      0     76      0      0      0      0      0      0    157      0      0      0      0      0      0      0      0      0      0    179      0      0      0      0      0      0      0      0      0      0      0    150
      6     13     14     12	    345    172     28     29      9      0     49      0      0      0      0     29      0      0      0      0     90     68      0      0      0      0      0    101     24      0      0      0      0      0      0      0    147      0     51      0      0      0      0      0      0      0     62    208      0      0      0      0      0      0      0      0      0      0      0      0      0      0      0      0      0     30      0      0      0
     11     11     14     14	    462    260     13     14      2      0     54      0      0    354      0      0      0     41      0      0      0      0      0      0      0     55      0      0     36      0      0      0     57      0      0      0      0      0      0      0      0      0      0      0    -31      0      0      0      0      0      0      0     44      0      0      0      0      0     20      0      0     72      0      0      0     -5      0      0      0
      7     13     12     15	    153     81     25     31     10      0      0      0      0      0      0     94      0      0      0      0      0      0      0      0      0      0      0      0      0      0      0      0    -22      0      0      0      0    -12      0      0      0      0      0      0      0      0      0      0      0      0      0      0      0      0      0      0      0      0      0      0      0     11      0      0    -26     51      0      0      0
     10     13     11     14	    126     56     20     22      2      0      0      0     89      0    -20      0     74      0      0      0      0      0      0     87      0      0     14      0      0      0      0      0      0      0      0      0      0      0      0      0      0      0      0      0    -11      0      0      0      0      0     44      0      0      0      0      0      0      0      0      0      0      0      0      0     -9      0     47      0      0
      8     15     10     11	    398     53     16     31      6     22      0      0      0      0      0      0      0    253      0      0      0      0      0      0      0     59      0    -34      0      0      0      0      0      0      0      0    134    290      0    196     99      0      0      0      0      0      0      0      0      0      0      0      0      0      0      0      0     98      0      0      0      0      0      0      0      0      0      0     38
     12     13     12     10	    444    105     17     31      9      0      0      0    272    118      0     81      5     85      0      0      0      0      0      0      0     63    -15      0      0      0      0      0      0      0    206      0      0      0      0      0      0     31      0      0      0      0      0      0      0      0      0      0      0      0      0    180      0      0      0      0      0      0    185    -67     14     89      0      0      0
      7     11     11     13	    446    283     27     29      6      0      0      0      0      0      0     71      0      0    175      0      0      0      0      0      0      0      6      0      0     55      0     51      0      0      0      0      0      0      0      0      0      0      0      0      0    109      0    142      0      0      0      0      0      0    180      0      0      0      0      0      0    103      0      0      0      0     37      0      0
     12     15     13     14	    466    120     15     15      4     89      0      0      0    194      0      0      0      0    -11      0      0      0      0      0      0      0      0      0      0      0    203      0      0    -34      0      0      0    -58     61      0      0      0      0      0      0      0      0      0    179      0      0      0      0      0      0      0      0      0      0      0     65      0      0      0      0      0      0     -6      0
     12     11     12     12	    412    166     17     23      2      0      0      0      0      0      0      0      0      0      0      0      0     75      0    279      0      0      0      0      0      0      0      0    104      0      0      0      0      0    -14      0      0    -82      0      0      0    100      0      0      0      0      0      0      0     98      0      0      0      0      0    -25      0      0      0      0     65      0      0     60      0
      6     10     13     10	    170     52     23     24      9      0      0      0      0      0      0      0     85     73      0      0      0      0      0      0      0      0      0      0      0      0      0      0      0      0     97      0      0      0      0      0      0     96     85      0      0      0      0      0      0      0     20      0      0      0      0      0      0      0      0      0      0      0     38      0      0      0      0      0      0
     12     13     15     13	    128     84     13     15      1      0      0      0      0      0      0    -17      0      0      0      0      0      0      0      0      0      0      0      0      0      0      0      0      0      0     12      0      0      0      0      0      0      0      0      0      0      0      0     51      0      0      0      0      0      0      0      0      0    -25      0      0      3      0      0    -23      0      0      0      0      0
      9     15     14     12	    349    172     15     20      5      0      0      0      0      0      0      0     27      0      0      0     68      0     78    -47      0      0    -54     11      0      0      0      0      0    112      0      0      0      0      8      0      0      0      0      0      0      0      0      0      0      0      0      0      0      0      0      0     65      0      0      3      0      0      0      0      0      0      0      0      0
     11     11     15     15	    140     54     31     31      4    -19      0      0      0      0      0      0      0      0      0      0      0     36      0      0      0      0      0     87    100     -5     37      0      0      0      0      0    -12      0     -7     80      0     42     55      0      0      0      0      0      0      0     72     11      0      0      0    103      0      0      0      0      0      0      0      0      0      0      0      0     21
      9     15     12     10	    488    212     21     21     10    -17      0      0      0      0      0     30      0      0      0      0      0      0      0      0      0      0      0      0      0      0     -2      0    230      0      0      0      0      0      0      0      0      0      0      0      0      0      0      0      0      0      0      0      0      0    185      0      0      0     38      0      0      0      0      0      0      0      0      0      0
      6     11     14     12	    452    129     19     22      2    103      0      0     37      0      0      0     73      0      0      0      0      0      0      0      0      0      0      0      0     89    184     98      0      0      0      0      0      0      0      0      6      0      0      0      0      0      0      0      0      0      0      0      0      0    -67      0      0      0      0    -23      0      0      0      0      0      0      0      0      0
      9     14     15     15	    481    115     27     28     10      0      0      0    259      0      0      0      0      0      0    125      0      0      0      0      0      0      0      0      0      0      0     60    -33      0      9    164      0      0     36    229      0      0     93      0      0     90      0    154      0      0      0    -26     -9      0     14      0      0     65      0      0      0      0      0      0      0      0      0      0      0
     11     11     10     13	    207     60     16     21      2      0      0      0      0     39      0      0      0      0      0     53      0     82      0    -35      0      0     82      0      0    -20     56      0    106      0      0      0      0      0      0      0      0      0      0      0      0      0      0      0      0     30     -5     51      0      0     89      0      0      0      0      0      0      0      0      0      0      0    124     83      0
      7     11     11     14	    288    198     29     30      6      0      0      0      0      0      0      0      0     92      0      0      0      0     63      0    229      0      0      0      0      0    170      0      0      0      0      0      0      0      0      0      0      0      0      0      0      0      0      0      0      0      0      0     47      0      0     37      0      0      0      0      0      0      0      0      0    124      0     52      0
      6     11     10     11	    144     68     23     31      3     73      0      0    -12    113      0      0      0      0      0     63     72      0     88      0      0      0     12      0      0      0      7     16     37      0      0      0      0      0      0      0      0      0      0      0      0      0      0      0      0      0      0      0      0      0      0      0     -6     60      0      0      0      0      0      0      0     83     52      0      0
      9     13     14     13	    205    133     26     31     10     73      0      0      0     17      0      0      0      0      0      0      0      0      0      0      0      0      0      0      0      0      0      0      0      0      0      0      0      0      0     24      0      0     19      0      0      0      0      0    150      0      0      0      0     38      0      0      0      0      0      0      0     21      0      0      0      0      0      0      0